\* metodo1 *\
Maximize
Total_de_calorias: 655.381 Alim_Arroz_blanco + 133.056 Alim_Atun_al_agua
 + 119.8382 Alim_Queso_crema
Subject To
Limite_inferior_de_carbos: 147.9075 Alim_Arroz_blanco
 + 0.95015 Alim_Queso_crema >= 88.1119844961
Limite_inferior_de_grasas: 1.221 Alim_Arroz_blanco + 1.4784 Alim_Atun_al_agua
 + 9.7198 Alim_Queso_crema >= 35.8972465753
Limite_inferior_de_proteinas: 13.1905 Alim_Arroz_blanco
 + 29.9376 Alim_Atun_al_agua + 7.13985 Alim_Queso_crema >= 42.0606547315
Limite_superior_de_carbos: 147.9075 Alim_Arroz_blanco
 + 0.95015 Alim_Queso_crema <= 97.3869302326
Limite_superior_de_grasas: 1.221 Alim_Arroz_blanco + 1.4784 Alim_Atun_al_agua
 + 9.7198 Alim_Queso_crema <= 39.6759041096
Limite_superior_de_proteinas: 13.1905 Alim_Arroz_blanco
 + 29.9376 Alim_Atun_al_agua + 7.13985 Alim_Queso_crema <= 46.4880920716
_C1: 655.381 Alim_Arroz_blanco + 133.056 Alim_Atun_al_agua
 + 119.8382 Alim_Queso_crema <= 888.174501146
End
